Route #1: 22 46 50 3 40 32
Route #2: 6 56
Route #3: 31 55 9 28 18 27 1
Route #4: 10 17 45 24 52 54 43
Route #5: 4 30 49 35 48 38 12
Route #6: 42 14 34 19 13 44 20
Route #7: 2 16 26 39 23 7
Route #8: 5 47 36 21 41 29 53
Route #9: 8 15 51 25 37 11 33
Cost 1599
Time 0.099344
